latin4 16 10 8 1
4 4 4 4 4 4 4 4 4 4 4 4 4 4 4 4
4 0 1 2 3 -1 salldiff var 1
4 4 5 6 7 -1 salldiff var 1
4 8 9 10 11 -1 salldiff var 1
4 12 13 14 15 -1 salldiff var 1
4 0 4 8 12 -1 salldiff var 1
4 1 5 9 13 -1 salldiff var 1
4 2 6 10 14 -1 salldiff var 1
4 3 7 11 15 -1 salldiff var 1